maximize
OBJ:100x0 + 100x1 + 100x2 + 100x3 + 100x4 + 100x5 + 100x6 + 100x7 + 100x8 + 100x9 + 100x10 + 100x11 + 100x12 + 100x13 + 100x14 + 100x15 + 100x16 + 100x17 + 100x18 + 100x19 + 100x20 + 100x21 + 100x22 + 100x23 + 100x24 + 100x25 + 100x26 + 100x27 + 100x28 + 100x29 + 100x30 + 100x31 + 100x32 + 100x33 + 100x34 + 100x35 + 100x36 + 100x37 + 100x38 + 100x39 + 100x40 + 100x41 + 100x42 + 100x43 + 100x44 + 100x45 + 100x46 + 100x47 + 100x48 + 100x49 + 100x50 + 100x51 + 100x52 + 100x53 + 100x54 + 100x55 + 100x56 + 100x57 + 100x58 + 100x59 + 100x60 + 100x61 + 100x62 - y15_21 - y36_62 - y47_62 - y26_39 - y28_58 - y8_9 - y21_37 - y11_14 - y40_50 - y41_42 - y3_6 - y3_15 - y22_28 - y2_59 - y14_24 - y25_61 - y3_33 - y14_33 - y14_42 - y36_48 - y47_48 - y55_61 - y36_57 - y7_30 - y5_60 - y6_34 - y40_45 - y40_54 - y2_27 - y10_49 - y10_58 - y3_19 - y35_60 - y14_37 - y16_56 - y36_43 - y55_56 - y28_39 - y47_52 - y17_48 - y36_61 - y9_44 - y17_57 - y28_57 - y6_29 - y21_27 - y6_38 - y48_53 - y21_36 - y29_49 - y21_45 - y6_56 - y21_54 - y2_13 - y33_37 - y2_40 - y22_27 - y3_23 - y14_23 - y32_59 - y24_55 - y43_59 - y1_62 - y16_60 - y17_25 - y36_38 - y17_34 - y9_30 - y5_41 - y17_43 - y28_43 - y36_56 - y5_50 - y28_61 - y50_58 - y6_33 - y29_35 - y21_49 - y39_48 - y10_21 - y39_57 - y2_17 - y20_53 - y31_53 - y10_39 - y23_58 - y32_45 - y43_45 - y51_58 - y43_54 - y16_37 - y13_50 - y35_50 - y35_59 - y16_55 - y28_29 - y9_25 - y47_51 - y6_10 - y29_30 - y27_60 - y6_37 - y21_35 - y39_43 - y10_16 - y39_52 - y31_48 - y39_61 - y20_57 - y31_57 - y32_40 - y1_34 - y35_36 - y32_58 - y13_54 - y35_54 - y16_50 - y9_11 - y5_22 - y9_20 - y17_33 - y28_42 - y9_38 - y9_47 - y42_44 - y27_55 - y50_57 - y2_16 - y12_48 - y23_48 - y31_61 - y4_44 - y12_57 - y13_22 - y32_35 - y43_44 - y1_38 - y35_40 - y35_49 - y16_45 - y5_8 - y5_35 - y17_37 - y5_44 - y27_41 - y6_18 - y42_48 - y50_61 - y8_55 - y11_51 - y31_38 - y39_51 - y12_34 - y23_34 - y4_30 - y12_43 - y12_52 - y53_62 - y4_57 - y32_39 - y34_58 - y1_33 - y24_35 - y16_31 - y24_44 - y16_49 - y5_12 - y9_10 - y17_23 - y57_59 - y26_53 - y38_55 - y9_28 - y26_62 - y7_58 - y19_41 - y30_41 - y50_56 - y19_50 - y30_59 - y12_20 - y31_33 - y23_29 - y31_42 - y23_38 - y53_57 - y4_52 - y45_53 - y24_30 - y45_62 - y56_62 - y1_46 - y15_48 - y38_50 - y49_50 - y38_59 - y49_59 - y18_53 - y7_62 - y27_40 - y8_36 - y19_45 - y27_58 - y8_54 - y30_54 - y42_56 - y11_50 - y11_59 - y12_24 - y52_60 - y23_33 - y4_29 - y34_39 - y4_47 - y53_61 - y37_53 - y37_62 - y46_49 - y38_45 - y18_39 - y8_13 - y15_61 - y26_61 - y18_57 - y8_22 - y0_18 - y11_27 - y19_40 - y30_40 - y11_36 - y19_49 - y30_58 - y20_23 - y4_6 - y0_54 - y52_55 - y20_32 - y4_15 - y4_24 - y33_60 - y1_9 - y22_41 - y1_18 - y37_39 - y34_61 - y45_61 - y3_55 - y15_29 - y26_29 - y18_25 - y26_38 - y38_49 - y15_56 - y18_52 - y8_26 - y29_58 - y8_35 - y0_31 - y8_44 - y12_14 - y41_50 - y4_19 - y1_4 - y34_47 - y22_54 - y7_20 - y18_20 - y15_33 - y7_29 - y7_38 - y18_47 - y11_26 - y29_62 - y4_5 - y33_41 - y25_37 - y33_50 - y2_44 - y10_57 - y2_53 - y22_31 - y14_36 - y34_51 - y22_58 - y3_54 - y37_56 - y7_24 - y26_37 - y7_33 - y18_33 - y7_42 - y18_42 - y0_12 - y11_12 - y29_48 - y48_61 - y11_21 - y29_57 - y21_53 - y25_32 - y33_45 - y44_45 - y33_54 - y44_54 - y2_57 - y14_40 - y22_53 - y3_49 - y7_19 - y36_55 - y28_51 - y17_60 - y28_60 - y7_37 - y9_56 - y18_37 - y29_34 - y48_56 - y21_39 - y6_50 - y40_52 - y21_48 - y29_61 - y21_57 - y10_20 - y44_49 - y2_43 - y3_8 - y51_57 - y14_26 - y22_39 - y3_35 - y14_44 - y36_41 - y28_46 - y7_23 - y18_23 - y36_59 - y5_53 - y28_55 - y47_59 - y5_62 - y21_25 - y6_45 - y21_43 - y6_54 - y21_61 - y2_20 - y2_29 - y25_31 - y2_38 - y2_47 - y3_12 - y22_25 - y14_21 - y32_57 - y24_53 - y24_62 - y28_32 - y7_9 - y28_41 - y5_48 - y58_60 - y40_42 - y10_28 - y25_35 - y3_7 - y32_43 - y14_16 - y32_52 - y43_52 - y24_48 - y35_57 - y17_27 - y17_36 - y47_49 - y9_32 - y17_45 - y6_8 - y47_58 - y28_54 - y5_61 - y6_26 - y6_35 - y29_37 - y6_44 - y39_50 - y2_10 - y10_23 - y39_59 - y10_32 - y23_51 - y12_60 - y13_25 - y24_34 - y13_43 - y24_43 - y43_56 - y16_39 - y5_29 - y28_31 - y36_44 - y17_49 - y9_54 - y50_55 - y6_30 - y2_5 - y39_54 - y31_50 - y12_46 - y20_59 - y54_61 - y23_55 - y13_20 - y4_51 - y1_27 - y13_29 - y13_47 - y38_58 - y28_35 - y5_51 - y6_16 - y27_48 - y6_25 - y21_23 - y27_57 - y8_53 - y42_55 - y0_49 - y30_62 - y0_58 - y39_40 - y20_36 - y31_36 - y2_9 - y12_41 - y2_18 - y12_50 - y23_50 - y12_59 - y1_31 - y16_47 - y38_44 - y17_30 - y6_11 - y27_43 - y8_39 - y19_39 - y30_39 - y19_48 - y27_61 - y0_44 - y30_57 - y42_59 - y11_53 - y11_62 - y12_27 - y23_27 - y20_40 - y4_23 - y39_44 - y23_36 - y20_49 - y23_45 - y20_58 - y4_41 - y53_55 - y24_28 - y24_37 - y35_37 - y16_42 - y9_12 - y46_61 - y26_55 - y18_51 - y18_60 - y0_30 - y42_45 - y0_39 - y8_52 - y19_52 - y0_48 - y11_48 - y0_57 - y4_18 - y20_44 - y4_27 - y1_3 - y1_12 - y4_45 - y34_46 - y53_59 - y3_58 - y14_58 - y26_41 - y26_59 - y8_20 - y19_20 - y27_33 - y8_29 - y19_29 - y8_38 - y27_51 - y20_30 - y4_13 - y0_61 - y11_61 - y12_26 - y23_35 - y4_31 - y1_16 - y53_54 - y37_46 - y45_59 - y15_27 - y26_27 - y15_36 - y18_32 - y38_56 - y7_50 - y18_50 - y18_59 - y48_60 - y27_37 - y0_20 - y30_33 - y27_46 - y8_42 - y19_42 - y41_48 - y4_8 - y12_21 - y41_57 - y52_57 - y4_26 - y1_2 - y22_34 - y22_43 - y34_45 - y53_58 - y22_52 - y34_54 - y3_48 - y14_48 - y14_57 - y37_59 - y15_31 - y26_31 - y18_36 - y26_49 - y0_6 - y48_55 - y8_28 - y40_60 - y33_39 - y41_61 - y52_61 - y1_6 - y2_60 - y25_62 - y22_56 - y37_54 - y3_61 - y55_62 - y26_35 - y7_31 - y18_31 - y7_40 - y18_40 - y0_1 - y18_49 - y0_10 - y48_59 - y0_19 - y11_19 - y6_62 - y21_60 - y25_30 - y4_7 - y33_43 - y10_50 - y44_61 - y22_33 - y3_29 - y22_42
 Subject to
C1: x0+x1-y0_1 <=1 
C2: x0+x5 <=1 
C3: x0+x6-y0_6 <=1 
C4: x0+x8 <=1 
C5: x0+x10-y0_10 <=1 
C6: x0+x12-y0_12 <=1 
C7: x0+x18-y0_18 <=1 
C8: x0+x19-y0_19 <=1 
C9: x0+x20-y0_20 <=1 
C10: x0+x22 <=1 
C11: x0+x23 <=1 
C12: x0+x27 <=1 
C13: x0+x30-y0_30 <=1 
C14: x0+x31-y0_31 <=1 
C15: x0+x32 <=1 
C16: x0+x34 <=1 
C17: x0+x35 <=1 
C18: x0+x37 <=1 
C19: x0+x38 <=1 
C20: x0+x39-y0_39 <=1 
C21: x0+x42 <=1 
C22: x0+x43 <=1 
C23: x0+x44-y0_44 <=1 
C24: x0+x45 <=1 
C25: x0+x48-y0_48 <=1 
C26: x0+x49-y0_49 <=1 
C27: x0+x52 <=1 
C28: x0+x54-y0_54 <=1 
C29: x0+x57-y0_57 <=1 
C30: x0+x58-y0_58 <=1 
C31: x0+x59 <=1 
C32: x0+x60 <=1 
C33: x0+x61-y0_61 <=1 
C34: x0+x62 <=1 
C35: x1+x2-y1_2 <=1 
C36: x1+x3-y1_3 <=1 
C37: x1+x4-y1_4 <=1 
C38: x1+x6-y1_6 <=1 
C39: x1+x9-y1_9 <=1 
C40: x1+x10 <=1 
C41: x1+x11 <=1 
C42: x1+x12-y1_12 <=1 
C43: x1+x13 <=1 
C44: x1+x14 <=1 
C45: x1+x16-y1_16 <=1 
C46: x1+x18-y1_18 <=1 
C47: x1+x22 <=1 
C48: x1+x24 <=1 
C49: x1+x25 <=1 
C50: x1+x26 <=1 
C51: x1+x27-y1_27 <=1 
C52: x1+x29 <=1 
C53: x1+x31-y1_31 <=1 
C54: x1+x33-y1_33 <=1 
C55: x1+x34-y1_34 <=1 
C56: x1+x36 <=1 
C57: x1+x38-y1_38 <=1 
C58: x1+x43 <=1 
C59: x1+x46-y1_46 <=1 
C60: x1+x49 <=1 
C61: x1+x50 <=1 
C62: x1+x52 <=1 
C63: x1+x53 <=1 
C64: x1+x55 <=1 
C65: x1+x56 <=1 
C66: x1+x58 <=1 
C67: x1+x60 <=1 
C68: x1+x61 <=1 
C69: x1+x62-y1_62 <=1 
C70: x2+x4 <=1 
C71: x2+x5-y2_5 <=1 
C72: x2+x6 <=1 
C73: x2+x9-y2_9 <=1 
C74: x2+x10-y2_10 <=1 
C75: x2+x11 <=1 
C76: x2+x13-y2_13 <=1 
C77: x2+x14 <=1 
C78: x2+x16-y2_16 <=1 
C79: x2+x17-y2_17 <=1 
C80: x2+x18-y2_18 <=1 
C81: x2+x20-y2_20 <=1 
C82: x2+x22 <=1 
C83: x2+x26 <=1 
C84: x2+x27-y2_27 <=1 
C85: x2+x29-y2_29 <=1 
C86: x2+x30 <=1 
C87: x2+x31 <=1 
C88: x2+x32 <=1 
C89: x2+x35 <=1 
C90: x2+x38-y2_38 <=1 
C91: x2+x39 <=1 
C92: x2+x40-y2_40 <=1 
C93: x2+x41 <=1 
C94: x2+x42 <=1 
C95: x2+x43-y2_43 <=1 
C96: x2+x44-y2_44 <=1 
C97: x2+x47-y2_47 <=1 
C98: x2+x48 <=1 
C99: x2+x49 <=1 
C100: x2+x52 <=1 
C101: x2+x53-y2_53 <=1 
C102: x2+x54 <=1 
C103: x2+x57-y2_57 <=1 
C104: x2+x59-y2_59 <=1 
C105: x2+x60-y2_60 <=1 
C106: x2+x62 <=1 
C107: x3+x5 <=1 
C108: x3+x6-y3_6 <=1 
C109: x3+x7-y3_7 <=1 
C110: x3+x8-y3_8 <=1 
C111: x3+x9 <=1 
C112: x3+x10 <=1 
C113: x3+x11 <=1 
C114: x3+x12-y3_12 <=1 
C115: x3+x14 <=1 
C116: x3+x15-y3_15 <=1 
C117: x3+x16 <=1 
C118: x3+x19-y3_19 <=1 
C119: x3+x21 <=1 
C120: x3+x23-y3_23 <=1 
C121: x3+x27 <=1 
C122: x3+x28 <=1 
C123: x3+x29-y3_29 <=1 
C124: x3+x31 <=1 
C125: x3+x33-y3_33 <=1 
C126: x3+x35-y3_35 <=1 
C127: x3+x38 <=1 
C128: x3+x41 <=1 
C129: x3+x42 <=1 
C130: x3+x44 <=1 
C131: x3+x46 <=1 
C132: x3+x48-y3_48 <=1 
C133: x3+x49-y3_49 <=1 
C134: x3+x50 <=1 
C135: x3+x53 <=1 
C136: x3+x54-y3_54 <=1 
C137: x3+x55-y3_55 <=1 
C138: x3+x56 <=1 
C139: x3+x57 <=1 
C140: x3+x58-y3_58 <=1 
C141: x3+x60 <=1 
C142: x3+x61-y3_61 <=1 
C143: x4+x5-y4_5 <=1 
C144: x4+x6-y4_6 <=1 
C145: x4+x7-y4_7 <=1 
C146: x4+x8-y4_8 <=1 
C147: x4+x10 <=1 
C148: x4+x12 <=1 
C149: x4+x13-y4_13 <=1 
C150: x4+x14 <=1 
C151: x4+x15-y4_15 <=1 
C152: x4+x16 <=1 
C153: x4+x18-y4_18 <=1 
C154: x4+x19-y4_19 <=1 
C155: x4+x23-y4_23 <=1 
C156: x4+x24-y4_24 <=1 
C157: x4+x25 <=1 
C158: x4+x26-y4_26 <=1 
C159: x4+x27-y4_27 <=1 
C160: x4+x28 <=1 
C161: x4+x29-y4_29 <=1 
C162: x4+x30-y4_30 <=1 
C163: x4+x31-y4_31 <=1 
C164: x4+x34 <=1 
C165: x4+x36 <=1 
C166: x4+x39 <=1 
C167: x4+x40 <=1 
C168: x4+x41-y4_41 <=1 
C169: x4+x44-y4_44 <=1 
C170: x4+x45-y4_45 <=1 
C171: x4+x47-y4_47 <=1 
C172: x4+x48 <=1 
C173: x4+x49 <=1 
C174: x4+x51-y4_51 <=1 
C175: x4+x52-y4_52 <=1 
C176: x4+x53 <=1 
C177: x4+x54 <=1 
C178: x4+x56 <=1 
C179: x4+x57-y4_57 <=1 
C180: x4+x59 <=1 
C181: x4+x60 <=1 
C182: x5+x6 <=1 
C183: x5+x8-y5_8 <=1 
C184: x5+x10 <=1 
C185: x5+x11 <=1 
C186: x5+x12-y5_12 <=1 
C187: x5+x13 <=1 
C188: x5+x15 <=1 
C189: x5+x16 <=1 
C190: x5+x17 <=1 
C191: x5+x20 <=1 
C192: x5+x21 <=1 
C193: x5+x22-y5_22 <=1 
C194: x5+x24 <=1 
C195: x5+x26 <=1 
C196: x5+x27 <=1 
C197: x5+x28 <=1 
C198: x5+x29-y5_29 <=1 
C199: x5+x30 <=1 
C200: x5+x31 <=1 
C201: x5+x32 <=1 
C202: x5+x35-y5_35 <=1 
C203: x5+x39 <=1 
C204: x5+x41-y5_41 <=1 
C205: x5+x44-y5_44 <=1 
C206: x5+x48-y5_48 <=1 
C207: x5+x50-y5_50 <=1 
C208: x5+x51-y5_51 <=1 
C209: x5+x53-y5_53 <=1 
C210: x5+x54 <=1 
C211: x5+x60-y5_60 <=1 
C212: x5+x61-y5_61 <=1 
C213: x5+x62-y5_62 <=1 
C214: x6+x8-y6_8 <=1 
C215: x6+x10-y6_10 <=1 
C216: x6+x11-y6_11 <=1 
C217: x6+x16-y6_16 <=1 
C218: x6+x18-y6_18 <=1 
C219: x6+x20 <=1 
C220: x6+x21 <=1 
C221: x6+x22 <=1 
C222: x6+x23 <=1 
C223: x6+x24 <=1 
C224: x6+x25-y6_25 <=1 
C225: x6+x26-y6_26 <=1 
C226: x6+x28 <=1 
C227: x6+x29-y6_29 <=1 
C228: x6+x30-y6_30 <=1 
C229: x6+x32 <=1 
C230: x6+x33-y6_33 <=1 
C231: x6+x34-y6_34 <=1 
C232: x6+x35-y6_35 <=1 
C233: x6+x37-y6_37 <=1 
C234: x6+x38-y6_38 <=1 
C235: x6+x43 <=1 
C236: x6+x44-y6_44 <=1 
C237: x6+x45-y6_45 <=1 
C238: x6+x47 <=1 
C239: x6+x49 <=1 
C240: x6+x50-y6_50 <=1 
C241: x6+x52 <=1 
C242: x6+x53 <=1 
C243: x6+x54-y6_54 <=1 
C244: x6+x55 <=1 
C245: x6+x56-y6_56 <=1 
C246: x6+x57 <=1 
C247: x6+x58 <=1 
C248: x6+x60 <=1 
C249: x6+x62-y6_62 <=1 
C250: x7+x8 <=1 
C251: x7+x9-y7_9 <=1 
C252: x7+x10 <=1 
C253: x7+x14 <=1 
C254: x7+x15 <=1 
C255: x7+x19-y7_19 <=1 
C256: x7+x20-y7_20 <=1 
C257: x7+x21 <=1 
C258: x7+x23-y7_23 <=1 
C259: x7+x24-y7_24 <=1 
C260: x7+x26 <=1 
C261: x7+x27 <=1 
C262: x7+x29-y7_29 <=1 
C263: x7+x30-y7_30 <=1 
C264: x7+x31-y7_31 <=1 
C265: x7+x32 <=1 
C266: x7+x33-y7_33 <=1 
C267: x7+x34 <=1 
C268: x7+x37-y7_37 <=1 
C269: x7+x38-y7_38 <=1 
C270: x7+x40-y7_40 <=1 
C271: x7+x42-y7_42 <=1 
C272: x7+x44 <=1 
C273: x7+x45 <=1 
C274: x7+x46 <=1 
C275: x7+x48 <=1 
C276: x7+x49 <=1 
C277: x7+x50-y7_50 <=1 
C278: x7+x52 <=1 
C279: x7+x53 <=1 
C280: x7+x54 <=1 
C281: x7+x55 <=1 
C282: x7+x58-y7_58 <=1 
C283: x7+x61 <=1 
C284: x7+x62-y7_62 <=1 
C285: x8+x9-y8_9 <=1 
C286: x8+x13-y8_13 <=1 
C287: x8+x20-y8_20 <=1 
C288: x8+x22-y8_22 <=1 
C289: x8+x25 <=1 
C290: x8+x26-y8_26 <=1 
C291: x8+x28-y8_28 <=1 
C292: x8+x29-y8_29 <=1 
C293: x8+x35-y8_35 <=1 
C294: x8+x36-y8_36 <=1 
C295: x8+x37 <=1 
C296: x8+x38-y8_38 <=1 
C297: x8+x39-y8_39 <=1 
C298: x8+x40 <=1 
C299: x8+x41 <=1 
C300: x8+x42-y8_42 <=1 
C301: x8+x44-y8_44 <=1 
C302: x8+x49 <=1 
C303: x8+x50 <=1 
C304: x8+x52-y8_52 <=1 
C305: x8+x53-y8_53 <=1 
C306: x8+x54-y8_54 <=1 
C307: x8+x55-y8_55 <=1 
C308: x8+x56 <=1 
C309: x8+x57 <=1 
C310: x8+x59 <=1 
C311: x9+x10-y9_10 <=1 
C312: x9+x11-y9_11 <=1 
C313: x9+x12-y9_12 <=1 
C314: x9+x13 <=1 
C315: x9+x14 <=1 
C316: x9+x18 <=1 
C317: x9+x20-y9_20 <=1 
C318: x9+x21 <=1 
C319: x9+x22 <=1 
C320: x9+x23 <=1 
C321: x9+x25-y9_25 <=1 
C322: x9+x26 <=1 
C323: x9+x28-y9_28 <=1 
C324: x9+x29 <=1 
C325: x9+x30-y9_30 <=1 
C326: x9+x32-y9_32 <=1 
C327: x9+x35 <=1 
C328: x9+x38-y9_38 <=1 
C329: x9+x40 <=1 
C330: x9+x41 <=1 
C331: x9+x43 <=1 
C332: x9+x44-y9_44 <=1 
C333: x9+x46 <=1 
C334: x9+x47-y9_47 <=1 
C335: x9+x48 <=1 
C336: x9+x49 <=1 
C337: x9+x50 <=1 
C338: x9+x53 <=1 
C339: x9+x54-y9_54 <=1 
C340: x9+x55 <=1 
C341: x9+x56-y9_56 <=1 
C342: x10+x11 <=1 
C343: x10+x12 <=1 
C344: x10+x14 <=1 
C345: x10+x16-y10_16 <=1 
C346: x10+x18 <=1 
C347: x10+x20-y10_20 <=1 
C348: x10+x21-y10_21 <=1 
C349: x10+x22 <=1 
C350: x10+x23-y10_23 <=1 
C351: x10+x27 <=1 
C352: x10+x28-y10_28 <=1 
C353: x10+x30 <=1 
C354: x10+x32-y10_32 <=1 
C355: x10+x34 <=1 
C356: x10+x35 <=1 
C357: x10+x39-y10_39 <=1 
C358: x10+x41 <=1 
C359: x10+x43 <=1 
C360: x10+x44 <=1 
C361: x10+x45 <=1 
C362: x10+x46 <=1 
C363: x10+x48 <=1 
C364: x10+x49-y10_49 <=1 
C365: x10+x50-y10_50 <=1 
C366: x10+x53 <=1 
C367: x10+x54 <=1 
C368: x10+x57-y10_57 <=1 
C369: x10+x58-y10_58 <=1 
C370: x10+x60 <=1 
C371: x10+x62 <=1 
C372: x11+x12-y11_12 <=1 
C373: x11+x14-y11_14 <=1 
C374: x11+x15 <=1 
C375: x11+x19-y11_19 <=1 
C376: x11+x21-y11_21 <=1 
C377: x11+x24 <=1 
C378: x11+x25 <=1 
C379: x11+x26-y11_26 <=1 
C380: x11+x27-y11_27 <=1 
C381: x11+x32 <=1 
C382: x11+x34 <=1 
C383: x11+x35 <=1 
C384: x11+x36-y11_36 <=1 
C385: x11+x37 <=1 
C386: x11+x40 <=1 
C387: x11+x41 <=1 
C388: x11+x42 <=1 
C389: x11+x43 <=1 
C390: x11+x48-y11_48 <=1 
C391: x11+x49 <=1 
C392: x11+x50-y11_50 <=1 
C393: x11+x51-y11_51 <=1 
C394: x11+x53-y11_53 <=1 
C395: x11+x56 <=1 
C396: x11+x59-y11_59 <=1 
C397: x11+x61-y11_61 <=1 
C398: x11+x62-y11_62 <=1 
C399: x12+x13 <=1 
C400: x12+x14-y12_14 <=1 
C401: x12+x18 <=1 
C402: x12+x19 <=1 
C403: x12+x20-y12_20 <=1 
C404: x12+x21-y12_21 <=1 
C405: x12+x22 <=1 
C406: x12+x23 <=1 
C407: x12+x24-y12_24 <=1 
C408: x12+x25 <=1 
C409: x12+x26-y12_26 <=1 
C410: x12+x27-y12_27 <=1 
C411: x12+x30 <=1 
C412: x12+x34-y12_34 <=1 
C413: x12+x36 <=1 
C414: x12+x39 <=1 
C415: x12+x41-y12_41 <=1 
C416: x12+x43-y12_43 <=1 
C417: x12+x44 <=1 
C418: x12+x46-y12_46 <=1 
C419: x12+x48-y12_48 <=1 
C420: x12+x50-y12_50 <=1 
C421: x12+x52-y12_52 <=1 
C422: x12+x54 <=1 
C423: x12+x55 <=1 
C424: x12+x56 <=1 
C425: x12+x57-y12_57 <=1 
C426: x12+x58 <=1 
C427: x12+x59-y12_59 <=1 
C428: x12+x60-y12_60 <=1 
C429: x12+x62 <=1 
C430: x13+x15 <=1 
C431: x13+x16 <=1 
C432: x13+x20-y13_20 <=1 
C433: x13+x22-y13_22 <=1 
C434: x13+x24 <=1 
C435: x13+x25-y13_25 <=1 
C436: x13+x29-y13_29 <=1 
C437: x13+x30 <=1 
C438: x13+x37 <=1 
C439: x13+x38 <=1 
C440: x13+x41 <=1 
C441: x13+x43-y13_43 <=1 
C442: x13+x44 <=1 
C443: x13+x47-y13_47 <=1 
C444: x13+x50-y13_50 <=1 
C445: x13+x53 <=1 
C446: x13+x54-y13_54 <=1 
C447: x13+x58 <=1 
C448: x13+x59 <=1 
C449: x13+x60 <=1 
C450: x14+x16-y14_16 <=1 
C451: x14+x17 <=1 
C452: x14+x21-y14_21 <=1 
C453: x14+x23-y14_23 <=1 
C454: x14+x24-y14_24 <=1 
C455: x14+x25 <=1 
C456: x14+x26-y14_26 <=1 
C457: x14+x27 <=1 
C458: x14+x33-y14_33 <=1 
C459: x14+x34 <=1 
C460: x14+x36-y14_36 <=1 
C461: x14+x37-y14_37 <=1 
C462: x14+x39 <=1 
C463: x14+x40-y14_40 <=1 
C464: x14+x42-y14_42 <=1 
C465: x14+x44-y14_44 <=1 
C466: x14+x46 <=1 
C467: x14+x47 <=1 
C468: x14+x48-y14_48 <=1 
C469: x14+x51 <=1 
C470: x14+x52 <=1 
C471: x14+x54 <=1 
C472: x14+x56 <=1 
C473: x14+x57-y14_57 <=1 
C474: x14+x58-y14_58 <=1 
C475: x14+x59 <=1 
C476: x14+x60 <=1 
C477: x14+x61 <=1 
C478: x14+x62 <=1 
C479: x15+x19 <=1 
C480: x15+x21-y15_21 <=1 
C481: x15+x22 <=1 
C482: x15+x24 <=1 
C483: x15+x26 <=1 
C484: x15+x27-y15_27 <=1 
C485: x15+x29-y15_29 <=1 
C486: x15+x31-y15_31 <=1 
C487: x15+x33-y15_33 <=1 
C488: x15+x36-y15_36 <=1 
C489: x15+x37 <=1 
C490: x15+x38 <=1 
C491: x15+x40 <=1 
C492: x15+x43 <=1 
C493: x15+x44 <=1 
C494: x15+x45 <=1 
C495: x15+x46 <=1 
C496: x15+x47 <=1 
C497: x15+x48-y15_48 <=1 
C498: x15+x49 <=1 
C499: x15+x50 <=1 
C500: x15+x51 <=1 
C501: x15+x52 <=1 
C502: x15+x55 <=1 
C503: x15+x56-y15_56 <=1 
C504: x15+x57 <=1 
C505: x15+x59 <=1 
C506: x15+x61-y15_61 <=1 
C507: x16+x20 <=1 
C508: x16+x21 <=1 
C509: x16+x25 <=1 
C510: x16+x26 <=1 
C511: x16+x28 <=1 
C512: x16+x30 <=1 
C513: x16+x31-y16_31 <=1 
C514: x16+x35 <=1 
C515: x16+x36 <=1 
C516: x16+x37-y16_37 <=1 
C517: x16+x39-y16_39 <=1 
C518: x16+x42-y16_42 <=1 
C519: x16+x44 <=1 
C520: x16+x45-y16_45 <=1 
C521: x16+x47-y16_47 <=1 
C522: x16+x48 <=1 
C523: x16+x49-y16_49 <=1 
C524: x16+x50-y16_50 <=1 
C525: x16+x53 <=1 
C526: x16+x55-y16_55 <=1 
C527: x16+x56-y16_56 <=1 
C528: x16+x57 <=1 
C529: x16+x58 <=1 
C530: x16+x60-y16_60 <=1 
C531: x16+x61 <=1 
C532: x17+x18 <=1 
C533: x17+x20 <=1 
C534: x17+x23-y17_23 <=1 
C535: x17+x25-y17_25 <=1 
C536: x17+x26 <=1 
C537: x17+x27-y17_27 <=1 
C538: x17+x28 <=1 
C539: x17+x30-y17_30 <=1 
C540: x17+x33-y17_33 <=1 
C541: x17+x34-y17_34 <=1 
C542: x17+x36-y17_36 <=1 
C543: x17+x37-y17_37 <=1 
C544: x17+x40 <=1 
C545: x17+x41 <=1 
C546: x17+x43-y17_43 <=1 
C547: x17+x45-y17_45 <=1 
C548: x17+x47 <=1 
C549: x17+x48-y17_48 <=1 
C550: x17+x49-y17_49 <=1 
C551: x17+x55 <=1 
C552: x17+x57-y17_57 <=1 
C553: x17+x58 <=1 
C554: x17+x59 <=1 
C555: x17+x60-y17_60 <=1 
C556: x18+x19 <=1 
C557: x18+x20-y18_20 <=1 
C558: x18+x23-y18_23 <=1 
C559: x18+x24 <=1 
C560: x18+x25-y18_25 <=1 
C561: x18+x31-y18_31 <=1 
C562: x18+x32-y18_32 <=1 
C563: x18+x33-y18_33 <=1 
C564: x18+x35 <=1 
C565: x18+x36-y18_36 <=1 
C566: x18+x37-y18_37 <=1 
C567: x18+x38 <=1 
C568: x18+x39-y18_39 <=1 
C569: x18+x40-y18_40 <=1 
C570: x18+x41 <=1 
C571: x18+x42-y18_42 <=1 
C572: x18+x45 <=1 
C573: x18+x47-y18_47 <=1 
C574: x18+x49-y18_49 <=1 
C575: x18+x50-y18_50 <=1 
C576: x18+x51-y18_51 <=1 
C577: x18+x52-y18_52 <=1 
C578: x18+x53-y18_53 <=1 
C579: x18+x57-y18_57 <=1 
C580: x18+x59-y18_59 <=1 
C581: x18+x60-y18_60 <=1 
C582: x19+x20-y19_20 <=1 
C583: x19+x24 <=1 
C584: x19+x26 <=1 
C585: x19+x27 <=1 
C586: x19+x29-y19_29 <=1 
C587: x19+x30 <=1 
C588: x19+x31 <=1 
C589: x19+x39-y19_39 <=1 
C590: x19+x40-y19_40 <=1 
C591: x19+x41-y19_41 <=1 
C592: x19+x42-y19_42 <=1 
C593: x19+x44 <=1 
C594: x19+x45-y19_45 <=1 
C595: x19+x47 <=1 
C596: x19+x48-y19_48 <=1 
C597: x19+x49-y19_49 <=1 
C598: x19+x50-y19_50 <=1 
C599: x19+x51 <=1 
C600: x19+x52-y19_52 <=1 
C601: x19+x58 <=1 
C602: x20+x22 <=1 
C603: x20+x23-y20_23 <=1 
C604: x20+x26 <=1 
C605: x20+x27 <=1 
C606: x20+x28 <=1 
C607: x20+x30-y20_30 <=1 
C608: x20+x32-y20_32 <=1 
C609: x20+x33 <=1 
C610: x20+x34 <=1 
C611: x20+x36-y20_36 <=1 
C612: x20+x38 <=1 
C613: x20+x40-y20_40 <=1 
C614: x20+x41 <=1 
C615: x20+x43 <=1 
C616: x20+x44-y20_44 <=1 
C617: x20+x45 <=1 
C618: x20+x47 <=1 
C619: x20+x48 <=1 
C620: x20+x49-y20_49 <=1 
C621: x20+x50 <=1 
C622: x20+x51 <=1 
C623: x20+x53-y20_53 <=1 
C624: x20+x57-y20_57 <=1 
C625: x20+x58-y20_58 <=1 
C626: x20+x59-y20_59 <=1 
C627: x20+x60 <=1 
C628: x21+x22 <=1 
C629: x21+x23-y21_23 <=1 
C630: x21+x24 <=1 
C631: x21+x25-y21_25 <=1 
C632: x21+x26 <=1 
C633: x21+x27-y21_27 <=1 
C634: x21+x29 <=1 
C635: x21+x32 <=1 
C636: x21+x33 <=1 
C637: x21+x35-y21_35 <=1 
C638: x21+x36-y21_36 <=1 
C639: x21+x37-y21_37 <=1 
C640: x21+x39-y21_39 <=1 
C641: x21+x42 <=1 
C642: x21+x43-y21_43 <=1 
C643: x21+x45-y21_45 <=1 
C644: x21+x48-y21_48 <=1 
C645: x21+x49-y21_49 <=1 
C646: x21+x50 <=1 
C647: x21+x51 <=1 
C648: x21+x53-y21_53 <=1 
C649: x21+x54-y21_54 <=1 
C650: x21+x55 <=1 
C651: x21+x57-y21_57 <=1 
C652: x21+x58 <=1 
C653: x21+x59 <=1 
C654: x21+x60-y21_60 <=1 
C655: x21+x61-y21_61 <=1 
C656: x21+x62 <=1 
C657: x22+x24 <=1 
C658: x22+x25-y22_25 <=1 
C659: x22+x27-y22_27 <=1 
C660: x22+x28-y22_28 <=1 
C661: x22+x31-y22_31 <=1 
C662: x22+x33-y22_33 <=1 
C663: x22+x34-y22_34 <=1 
C664: x22+x39-y22_39 <=1 
C665: x22+x41-y22_41 <=1 
C666: x22+x42-y22_42 <=1 
C667: x22+x43-y22_43 <=1 
C668: x22+x47 <=1 
C669: x22+x48 <=1 
C670: x22+x49 <=1 
C671: x22+x50 <=1 
C672: x22+x52-y22_52 <=1 
C673: x22+x53-y22_53 <=1 
C674: x22+x54-y22_54 <=1 
C675: x22+x56-y22_56 <=1 
C676: x22+x58-y22_58 <=1 
C677: x22+x61 <=1 
C678: x23+x24 <=1 
C679: x23+x25 <=1 
C680: x23+x27-y23_27 <=1 
C681: x23+x28 <=1 
C682: x23+x29-y23_29 <=1 
C683: x23+x32 <=1 
C684: x23+x33-y23_33 <=1 
C685: x23+x34-y23_34 <=1 
C686: x23+x35-y23_35 <=1 
C687: x23+x36-y23_36 <=1 
C688: x23+x38-y23_38 <=1 
C689: x23+x39 <=1 
C690: x23+x41 <=1 
C691: x23+x44 <=1 
C692: x23+x45-y23_45 <=1 
C693: x23+x46 <=1 
C694: x23+x47 <=1 
C695: x23+x48-y23_48 <=1 
C696: x23+x49 <=1 
C697: x23+x50-y23_50 <=1 
C698: x23+x51-y23_51 <=1 
C699: x23+x52 <=1 
C700: x23+x53 <=1 
C701: x23+x55-y23_55 <=1 
C702: x23+x58-y23_58 <=1 
C703: x23+x60 <=1 
C704: x23+x62 <=1 
C705: x24+x27 <=1 
C706: x24+x28-y24_28 <=1 
C707: x24+x30-y24_30 <=1 
C708: x24+x31 <=1 
C709: x24+x32 <=1 
C710: x24+x34-y24_34 <=1 
C711: x24+x35-y24_35 <=1 
C712: x24+x37-y24_37 <=1 
C713: x24+x38 <=1 
C714: x24+x39 <=1 
C715: x24+x41 <=1 
C716: x24+x43-y24_43 <=1 
C717: x24+x44-y24_44 <=1 
C718: x24+x46 <=1 
C719: x24+x48-y24_48 <=1 
C720: x24+x53-y24_53 <=1 
C721: x24+x55-y24_55 <=1 
C722: x24+x57 <=1 
C723: x24+x62-y24_62 <=1 
C724: x25+x27 <=1 
C725: x25+x30-y25_30 <=1 
C726: x25+x31-y25_31 <=1 
C727: x25+x32-y25_32 <=1 
C728: x25+x35-y25_35 <=1 
C729: x25+x36 <=1 
C730: x25+x37-y25_37 <=1 
C731: x25+x39 <=1 
C732: x25+x42 <=1 
C733: x25+x43 <=1 
C734: x25+x46 <=1 
C735: x25+x47 <=1 
C736: x25+x52 <=1 
C737: x25+x53 <=1 
C738: x25+x56 <=1 
C739: x25+x57 <=1 
C740: x25+x58 <=1 
C741: x25+x61-y25_61 <=1 
C742: x25+x62-y25_62 <=1 
C743: x26+x27-y26_27 <=1 
C744: x26+x29-y26_29 <=1 
C745: x26+x31-y26_31 <=1 
C746: x26+x35-y26_35 <=1 
C747: x26+x37-y26_37 <=1 
C748: x26+x38-y26_38 <=1 
C749: x26+x39-y26_39 <=1 
C750: x26+x41-y26_41 <=1 
C751: x26+x43 <=1 
C752: x26+x44 <=1 
C753: x26+x46 <=1 
C754: x26+x49-y26_49 <=1 
C755: x26+x50 <=1 
C756: x26+x53-y26_53 <=1 
C757: x26+x55-y26_55 <=1 
C758: x26+x58 <=1 
C759: x26+x59-y26_59 <=1 
C760: x26+x61-y26_61 <=1 
C761: x26+x62-y26_62 <=1 
C762: x27+x28 <=1 
C763: x27+x30 <=1 
C764: x27+x32 <=1 
C765: x27+x33-y27_33 <=1 
C766: x27+x34 <=1 
C767: x27+x36 <=1 
C768: x27+x37-y27_37 <=1 
C769: x27+x38 <=1 
C770: x27+x40-y27_40 <=1 
C771: x27+x41-y27_41 <=1 
C772: x27+x42 <=1 
C773: x27+x43-y27_43 <=1 
C774: x27+x44 <=1 
C775: x27+x46-y27_46 <=1 
C776: x27+x48-y27_48 <=1 
C777: x27+x49 <=1 
C778: x27+x50 <=1 
C779: x27+x51-y27_51 <=1 
C780: x27+x52 <=1 
C781: x27+x53 <=1 
C782: x27+x55-y27_55 <=1 
C783: x27+x57-y27_57 <=1 
C784: x27+x58-y27_58 <=1 
C785: x27+x59 <=1 
C786: x27+x60-y27_60 <=1 
C787: x27+x61-y27_61 <=1 
C788: x28+x29-y28_29 <=1 
C789: x28+x31-y28_31 <=1 
C790: x28+x32-y28_32 <=1 
C791: x28+x33 <=1 
C792: x28+x34 <=1 
C793: x28+x35-y28_35 <=1 
C794: x28+x39-y28_39 <=1 
C795: x28+x40 <=1 
C796: x28+x41-y28_41 <=1 
C797: x28+x42-y28_42 <=1 
C798: x28+x43-y28_43 <=1 
C799: x28+x46-y28_46 <=1 
C800: x28+x48 <=1 
C801: x28+x51-y28_51 <=1 
C802: x28+x52 <=1 
C803: x28+x53 <=1 
C804: x28+x54-y28_54 <=1 
C805: x28+x55-y28_55 <=1 
C806: x28+x57-y28_57 <=1 
C807: x28+x58-y28_58 <=1 
C808: x28+x59 <=1 
C809: x28+x60-y28_60 <=1 
C810: x28+x61-y28_61 <=1 
C811: x28+x62 <=1 
C812: x29+x30-y29_30 <=1 
C813: x29+x34-y29_34 <=1 
C814: x29+x35-y29_35 <=1 
C815: x29+x36 <=1 
C816: x29+x37-y29_37 <=1 
C817: x29+x38 <=1 
C818: x29+x40 <=1 
C819: x29+x43 <=1 
C820: x29+x44 <=1 
C821: x29+x46 <=1 
C822: x29+x47 <=1 
C823: x29+x48-y29_48 <=1 
C824: x29+x49-y29_49 <=1 
C825: x29+x50 <=1 
C826: x29+x51 <=1 
C827: x29+x55 <=1 
C828: x29+x56 <=1 
C829: x29+x57-y29_57 <=1 
C830: x29+x58-y29_58 <=1 
C831: x29+x61-y29_61 <=1 
C832: x29+x62-y29_62 <=1 
C833: x30+x32 <=1 
C834: x30+x33-y30_33 <=1 
C835: x30+x35 <=1 
C836: x30+x37 <=1 
C837: x30+x39-y30_39 <=1 
C838: x30+x40-y30_40 <=1 
C839: x30+x41-y30_41 <=1 
C840: x30+x42 <=1 
C841: x30+x45 <=1 
C842: x30+x46 <=1 
C843: x30+x47 <=1 
C844: x30+x49 <=1 
C845: x30+x52 <=1 
C846: x30+x54-y30_54 <=1 
C847: x30+x56 <=1 
C848: x30+x57-y30_57 <=1 
C849: x30+x58-y30_58 <=1 
C850: x30+x59-y30_59 <=1 
C851: x30+x61 <=1 
C852: x30+x62-y30_62 <=1 
C853: x31+x32 <=1 
C854: x31+x33-y31_33 <=1 
C855: x31+x34 <=1 
C856: x31+x36-y31_36 <=1 
C857: x31+x38-y31_38 <=1 
C858: x31+x42-y31_42 <=1 
C859: x31+x46 <=1 
C860: x31+x47 <=1 
C861: x31+x48-y31_48 <=1 
C862: x31+x49 <=1 
C863: x31+x50-y31_50 <=1 
C864: x31+x51 <=1 
C865: x31+x53-y31_53 <=1 
C866: x31+x54 <=1 
C867: x31+x56 <=1 
C868: x31+x57-y31_57 <=1 
C869: x31+x59 <=1 
C870: x31+x60 <=1 
C871: x31+x61-y31_61 <=1 
C872: x32+x35-y32_35 <=1 
C873: x32+x38 <=1 
C874: x32+x39-y32_39 <=1 
C875: x32+x40-y32_40 <=1 
C876: x32+x43-y32_43 <=1 
C877: x32+x45-y32_45 <=1 
C878: x32+x46 <=1 
C879: x32+x48 <=1 
C880: x32+x50 <=1 
C881: x32+x52-y32_52 <=1 
C882: x32+x53 <=1 
C883: x32+x57-y32_57 <=1 
C884: x32+x58-y32_58 <=1 
C885: x32+x59-y32_59 <=1 
C886: x32+x61 <=1 
C887: x33+x34 <=1 
C888: x33+x36 <=1 
C889: x33+x37-y33_37 <=1 
C890: x33+x39-y33_39 <=1 
C891: x33+x40 <=1 
C892: x33+x41-y33_41 <=1 
C893: x33+x43-y33_43 <=1 
C894: x33+x44 <=1 
C895: x33+x45-y33_45 <=1 
C896: x33+x47 <=1 
C897: x33+x48 <=1 
C898: x33+x50-y33_50 <=1 
C899: x33+x51 <=1 
C900: x33+x52 <=1 
C901: x33+x53 <=1 
C902: x33+x54-y33_54 <=1 
C903: x33+x56 <=1 
C904: x33+x60-y33_60 <=1 
C905: x33+x61 <=1 
C906: x34+x36 <=1 
C907: x34+x37 <=1 
C908: x34+x39-y34_39 <=1 
C909: x34+x44 <=1 
C910: x34+x45-y34_45 <=1 
C911: x34+x46-y34_46 <=1 
C912: x34+x47-y34_47 <=1 
C913: x34+x48 <=1 
C914: x34+x50 <=1 
C915: x34+x51-y34_51 <=1 
C916: x34+x53 <=1 
C917: x34+x54-y34_54 <=1 
C918: x34+x58-y34_58 <=1 
C919: x34+x59 <=1 
C920: x34+x61-y34_61 <=1 
C921: x35+x36-y35_36 <=1 
C922: x35+x37-y35_37 <=1 
C923: x35+x39 <=1 
C924: x35+x40-y35_40 <=1 
C925: x35+x45 <=1 
C926: x35+x47 <=1 
C927: x35+x49-y35_49 <=1 
C928: x35+x50-y35_50 <=1 
C929: x35+x51 <=1 
C930: x35+x53 <=1 
C931: x35+x54-y35_54 <=1 
C932: x35+x55 <=1 
C933: x35+x57-y35_57 <=1 
C934: x35+x59-y35_59 <=1 
C935: x35+x60-y35_60 <=1 
C936: x35+x62 <=1 
C937: x36+x38-y36_38 <=1 
C938: x36+x40 <=1 
C939: x36+x41-y36_41 <=1 
C940: x36+x43-y36_43 <=1 
C941: x36+x44-y36_44 <=1 
C942: x36+x45 <=1 
C943: x36+x47 <=1 
C944: x36+x48-y36_48 <=1 
C945: x36+x49 <=1 
C946: x36+x51 <=1 
C947: x36+x52 <=1 
C948: x36+x53 <=1 
C949: x36+x54 <=1 
C950: x36+x55-y36_55 <=1 
C951: x36+x56-y36_56 <=1 
C952: x36+x57-y36_57 <=1 
C953: x36+x59-y36_59 <=1 
C954: x36+x61-y36_61 <=1 
C955: x36+x62-y36_62 <=1 
C956: x37+x38 <=1 
C957: x37+x39-y37_39 <=1 
C958: x37+x44 <=1 
C959: x37+x45 <=1 
C960: x37+x46-y37_46 <=1 
C961: x37+x48 <=1 
C962: x37+x49 <=1 
C963: x37+x50 <=1 
C964: x37+x51 <=1 
C965: x37+x53-y37_53 <=1 
C966: x37+x54-y37_54 <=1 
C967: x37+x55 <=1 
C968: x37+x56-y37_56 <=1 
C969: x37+x59-y37_59 <=1 
C970: x37+x60 <=1 
C971: x37+x62-y37_62 <=1 
C972: x38+x39 <=1 
C973: x38+x42 <=1 
C974: x38+x44-y38_44 <=1 
C975: x38+x45-y38_45 <=1 
C976: x38+x46 <=1 
C977: x38+x48 <=1 
C978: x38+x49-y38_49 <=1 
C979: x38+x50-y38_50 <=1 
C980: x38+x51 <=1 
C981: x38+x53 <=1 
C982: x38+x55-y38_55 <=1 
C983: x38+x56-y38_56 <=1 
C984: x38+x58-y38_58 <=1 
C985: x38+x59-y38_59 <=1 
C986: x38+x61 <=1 
C987: x39+x40-y39_40 <=1 
C988: x39+x41 <=1 
C989: x39+x43-y39_43 <=1 
C990: x39+x44-y39_44 <=1 
C991: x39+x45 <=1 
C992: x39+x46 <=1 
C993: x39+x47 <=1 
C994: x39+x48-y39_48 <=1 
C995: x39+x50-y39_50 <=1 
C996: x39+x51-y39_51 <=1 
C997: x39+x52-y39_52 <=1 
C998: x39+x54-y39_54 <=1 
C999: x39+x55 <=1 
C1000: x39+x56 <=1 
C1001: x39+x57-y39_57 <=1 
C1002: x39+x58 <=1 
C1003: x39+x59-y39_59 <=1 
C1004: x39+x61-y39_61 <=1 
C1005: x40+x41 <=1 
C1006: x40+x42-y40_42 <=1 
C1007: x40+x45-y40_45 <=1 
C1008: x40+x48 <=1 
C1009: x40+x50-y40_50 <=1 
C1010: x40+x51 <=1 
C1011: x40+x52-y40_52 <=1 
C1012: x40+x54-y40_54 <=1 
C1013: x40+x56 <=1 
C1014: x40+x58 <=1 
C1015: x40+x59 <=1 
C1016: x40+x60-y40_60 <=1 
C1017: x40+x61 <=1 
C1018: x40+x62 <=1 
C1019: x41+x42-y41_42 <=1 
C1020: x41+x43 <=1 
C1021: x41+x44 <=1 
C1022: x41+x46 <=1 
C1023: x41+x48-y41_48 <=1 
C1024: x41+x50-y41_50 <=1 
C1025: x41+x52 <=1 
C1026: x41+x54 <=1 
C1027: x41+x56 <=1 
C1028: x41+x57-y41_57 <=1 
C1029: x41+x58 <=1 
C1030: x41+x61-y41_61 <=1 
C1031: x41+x62 <=1 
C1032: x42+x44-y42_44 <=1 
C1033: x42+x45-y42_45 <=1 
C1034: x42+x46 <=1 
C1035: x42+x48-y42_48 <=1 
C1036: x42+x49 <=1 
C1037: x42+x55-y42_55 <=1 
C1038: x42+x56-y42_56 <=1 
C1039: x42+x57 <=1 
C1040: x42+x58 <=1 
C1041: x42+x59-y42_59 <=1 
C1042: x43+x44-y43_44 <=1 
C1043: x43+x45-y43_45 <=1 
C1044: x43+x52-y43_52 <=1 
C1045: x43+x54-y43_54 <=1 
C1046: x43+x55 <=1 
C1047: x43+x56-y43_56 <=1 
C1048: x43+x57 <=1 
C1049: x43+x58 <=1 
C1050: x43+x59-y43_59 <=1 
C1051: x44+x45-y44_45 <=1 
C1052: x44+x49-y44_49 <=1 
C1053: x44+x50 <=1 
C1054: x44+x51 <=1 
C1055: x44+x54-y44_54 <=1 
C1056: x44+x57 <=1 
C1057: x44+x59 <=1 
C1058: x44+x60 <=1 
C1059: x44+x61-y44_61 <=1 
C1060: x45+x46 <=1 
C1061: x45+x47 <=1 
C1062: x45+x50 <=1 
C1063: x45+x51 <=1 
C1064: x45+x53-y45_53 <=1 
C1065: x45+x57 <=1 
C1066: x45+x59-y45_59 <=1 
C1067: x45+x61-y45_61 <=1 
C1068: x45+x62-y45_62 <=1 
C1069: x46+x47 <=1 
C1070: x46+x49-y46_49 <=1 
C1071: x46+x50 <=1 
C1072: x46+x54 <=1 
C1073: x46+x56 <=1 
C1074: x46+x60 <=1 
C1075: x46+x61-y46_61 <=1 
C1076: x47+x48-y47_48 <=1 
C1077: x47+x49-y47_49 <=1 
C1078: x47+x51-y47_51 <=1 
C1079: x47+x52-y47_52 <=1 
C1080: x47+x55 <=1 
C1081: x47+x56 <=1 
C1082: x47+x57 <=1 
C1083: x47+x58-y47_58 <=1 
C1084: x47+x59-y47_59 <=1 
C1085: x47+x60 <=1 
C1086: x47+x61 <=1 
C1087: x47+x62-y47_62 <=1 
C1088: x48+x50 <=1 
C1089: x48+x51 <=1 
C1090: x48+x52 <=1 
C1091: x48+x53-y48_53 <=1 
C1092: x48+x55-y48_55 <=1 
C1093: x48+x56-y48_56 <=1 
C1094: x48+x59-y48_59 <=1 
C1095: x48+x60-y48_60 <=1 
C1096: x48+x61-y48_61 <=1 
C1097: x49+x50-y49_50 <=1 
C1098: x49+x51 <=1 
C1099: x49+x52 <=1 
C1100: x49+x53 <=1 
C1101: x49+x54 <=1 
C1102: x49+x56 <=1 
C1103: x49+x58 <=1 
C1104: x49+x59-y49_59 <=1 
C1105: x49+x61 <=1 
C1106: x49+x62 <=1 
C1107: x50+x51 <=1 
C1108: x50+x52 <=1 
C1109: x50+x55-y50_55 <=1 
C1110: x50+x56-y50_56 <=1 
C1111: x50+x57-y50_57 <=1 
C1112: x50+x58-y50_58 <=1 
C1113: x50+x60 <=1 
C1114: x50+x61-y50_61 <=1 
C1115: x51+x52 <=1 
C1116: x51+x53 <=1 
C1117: x51+x57-y51_57 <=1 
C1118: x51+x58-y51_58 <=1 
C1119: x51+x60 <=1 
C1120: x51+x61 <=1 
C1121: x52+x55-y52_55 <=1 
C1122: x52+x57-y52_57 <=1 
C1123: x52+x58 <=1 
C1124: x52+x59 <=1 
C1125: x52+x60-y52_60 <=1 
C1126: x52+x61-y52_61 <=1 
C1127: x53+x54-y53_54 <=1 
C1128: x53+x55-y53_55 <=1 
C1129: x53+x57-y53_57 <=1 
C1130: x53+x58-y53_58 <=1 
C1131: x53+x59-y53_59 <=1 
C1132: x53+x61-y53_61 <=1 
C1133: x53+x62-y53_62 <=1 
C1134: x54+x55 <=1 
C1135: x54+x56 <=1 
C1136: x54+x57 <=1 
C1137: x54+x59 <=1 
C1138: x54+x60 <=1 
C1139: x54+x61-y54_61 <=1 
C1140: x55+x56-y55_56 <=1 
C1141: x55+x58 <=1 
C1142: x55+x61-y55_61 <=1 
C1143: x55+x62-y55_62 <=1 
C1144: x56+x61 <=1 
C1145: x56+x62-y56_62 <=1 
C1146: x57+x58 <=1 
C1147: x57+x59-y57_59 <=1 
C1148: x58+x60-y58_60 <=1 
C1149: x58+x62 <=1 
C1150: x59+x62 <=1 
C1151: x60+x61 <=1 
C1152: x60+x62 <=1 

binary
x0
x1
x2
x3
x4
x5
x6
x7
x8
x9
x10
x11
x12
x13
x14
x15
x16
x17
x18
x19
x20
x21
x22
x23
x24
x25
x26
x27
x28
x29
x30
x31
x32
x33
x34
x35
x36
x37
x38
x39
x40
x41
x42
x43
x44
x45
x46
x47
x48
x49
x50
x51
x52
x53
x54
x55
x56
x57
x58
x59
x60
x61
x62
